phase2/problem_log/problem939.mps
NAME Resale_Solver
ROWS
 N  OBJ
 L  cost    
 L  weight  
 G  rep(1,0)
 G  rep(2,1)
 G  rep(3,2)
 G  rep(4,3)
 G  rep(5,4)
 G  rep(6,5)
 G  rep(7,6)
 G  rep(8,7)
 G  rep(9,8)
 G  rep(10,9)
 G  rep(11,10)
 G  rep(11,11)
 G  rep(12,12)
 G  rep(13,13)
 G  rep(14,14)
 G  rep(15,15)
 G  rep(16,16)
 G  rep(17,17)
 G  rep(18,18)
 G  rep(19,19)
 G  rep(20,20)
 G  rep(21,21)
 G  rep(22,22)
 G  rep(23,23)
 G  rep(24,24)
 G  rep(25,25)
 G  rep(26,26)
 G  rep(27,27)
 G  rep(28,28)
 G  rep(29,29)
 G  rep(30,30)
 G  rep(31,31)
 G  rep(32,32)
 G  rep(33,33)
 G  rep(34,34)
 G  rep(35,35)
 G  rep(36,36)
 G  rep(37,37)
 G  rep(38,38)
 G  rep(39,39)
 G  rep(40,40)
 G  rep(41,41)
 G  rep(42,42)
 G  rep(43,43)
 G  rep(44,44)
 G  rep(45,45)
 G  rep(46,46)
 G  rep(47,47)
 G  rep(48,48)
 G  rep(49,49)
 L  constr_0
 L  constr_1
 L  constr_2
 L  constr_3
 L  constr_4
 L  constr_5
 L  constr_6
 L  constr_7
 L  constr_8
 L  constr_9
 L  constr_10
 L  constr_11
 L  constr_12
 L  constr_13
 L  constr_14
 L  constr_15
 L  constr_16
 L  constr_17
 L  constr_18
 L  constr_19
COLUMNS
    MARKER    'MARKER'                 'INTORG'
    list[0]   OBJ       -152426986
    list[0]   cost      153975621
    list[0]   weight    160335372
    list[0]   rep(1,0)  -1
    list[1]   OBJ       143788322
    list[1]   cost      7669167
    list[1]   weight    1.7916263022999999e+08
    list[1]   rep(2,1)  -1
    list[2]   OBJ       2.3375952370000005e+07
    list[2]   cost      1.2227997763000000e+08
    list[2]   weight    88591507
    list[2]   rep(3,2)  -1
    list[3]   OBJ       1.3217910322000000e+08
    list[3]   cost      19985669
    list[3]   weight    121012164
    list[3]   rep(4,3)  -1
    list[4]   OBJ       2.8929024530000001e+07
    list[4]   cost      123583758
    list[4]   weight    51960118
    list[4]   rep(5,4)  -1
    list[5]   OBJ       5.3127565999999642e+05
    list[5]   cost      6.2728265570000000e+07
    list[5]   weight    1.5840228240000000e+07
    list[5]   rep(6,5)  -1
    list[6]   OBJ       8.1586015300000012e+06
    list[6]   cost      67129575
    list[6]   weight    120842718
    list[6]   rep(7,6)  -1
    list[7]   OBJ       2.6342846400000006e+06
    list[7]   cost      112660737
    list[7]   weight    171448496
    list[7]   rep(8,7)  -1
    list[8]   OBJ       4.6998303519999996e+07
    list[8]   cost      63861189
    list[8]   weight    178726136
    list[8]   rep(9,8)  -1
    list[9]   OBJ       1.0841476250000000e+07
    list[9]   cost      140041906
    list[9]   weight    141377010
    list[9]   rep(10,9)  -1
    list[10]  OBJ       9.2392463250000000e+07
    list[10]  cost      56159418
    list[10]  weight    17614653
    list[10]  rep(11,10)  -1
    list[11]  OBJ       1.7551170359999999e+07
    list[11]  cost      104908901
    list[11]  weight    64148601
    list[11]  rep(11,11)  -1
    list[12]  OBJ       9.7493270730000004e+07
    list[12]  cost      25322239
    list[12]  weight    1.2046818123000000e+08
    list[12]  rep(12,12)  -1
    list[13]  OBJ       7.2771487849999994e+07
    list[13]  cost      74538054
    list[13]  weight    69896368
    list[13]  rep(13,13)  -1
    list[14]  OBJ       7.2107809250000000e+07
    list[14]  cost      61946404
    list[14]  weight    145228334
    list[14]  rep(14,14)  -1
    list[15]  OBJ       5.1709169370000005e+07
    list[15]  cost      103187231
    list[15]  weight    81822110
    list[15]  rep(15,15)  -1
    list[16]  OBJ       2.3868424729999997e+07
    list[16]  cost      24045011
    list[16]  weight    127042328
    list[16]  rep(16,16)  -1
    list[17]  OBJ       7.2606932099999934e+06
    list[17]  cost      4.4603692520000003e+07
    list[17]  weight    127380475
    list[17]  rep(17,17)  -1
    list[18]  OBJ       9.8459239209999993e+07
    list[18]  cost      14138608
    list[18]  weight    42107615
    list[18]  rep(18,18)  -1
    list[19]  OBJ       3.0924266260000005e+07
    list[19]  cost      85550690
    list[19]  weight    147554387
    list[19]  rep(19,19)  -1
    list[20]  OBJ       4.9518388299999982e+06
    list[20]  cost      121974988
    list[20]  weight    18517595
    list[20]  rep(20,20)  -1
    list[21]  OBJ       8.7240255430000007e+07
    list[21]  cost      41085749
    list[21]  weight    68756042
    list[21]  rep(21,21)  -1
    list[22]  OBJ       7.8346374370000005e+07
    list[22]  cost      54498754
    list[22]  weight    175934403
    list[22]  rep(22,22)  -1
    list[23]  OBJ       1.2464982960000008e+07
    list[23]  cost      130286438
    list[23]  weight    115349628
    list[23]  rep(23,23)  -1
    list[24]  OBJ       2.0843332399999946e+06
    list[24]  cost      112176935
    list[24]  weight    3258620
    list[24]  rep(24,24)  -1
    list[25]  OBJ       1.2623739164000000e+08
    list[25]  cost      6401999
    list[25]  weight    102072261
    list[25]  rep(25,25)  -1
    list[26]  OBJ       4.8985772800000012e+06
    list[26]  cost      149878375
    list[26]  weight    152004203
    list[26]  rep(26,26)  -1
    list[27]  OBJ       2.8738403369999997e+07
    list[27]  cost      9187118
    list[27]  weight    5868348
    list[27]  rep(27,27)  -1
    list[28]  OBJ       9.1222816280000001e+07
    list[28]  cost      55216944
    list[28]  weight    75147754
    list[28]  rep(28,28)  -1
    list[29]  OBJ       1.0271537745999999e+08
    list[29]  cost      13119513
    list[29]  weight    78720003
    list[29]  rep(29,29)  -1
    list[30]  OBJ       7.9784694999998808e+05
    list[30]  cost      147989417
    list[30]  weight    162017373
    list[30]  rep(30,30)  -1
    list[31]  OBJ       3.7771066310000002e+07
    list[31]  cost      60780543
    list[31]  weight    173238935
    list[31]  rep(31,31)  -1
    list[32]  OBJ       69443437
    list[32]  cost      53834115
    list[32]  weight    60864941
    list[32]  rep(32,32)  -1
    list[33]  OBJ       12147961
    list[33]  cost      47044570
    list[33]  weight    89956317
    list[33]  rep(33,33)  -1
    list[34]  OBJ       19174136
    list[34]  cost      75369840
    list[34]  weight    2525194
    list[34]  rep(34,34)  -1
    list[35]  OBJ       78714310
    list[35]  cost      8398582
    list[35]  weight    17492337
    list[35]  rep(35,35)  -1
    list[36]  OBJ       97771176
    list[36]  cost      129858
    list[36]  weight    131575401
    list[36]  rep(36,36)  -1
    list[37]  OBJ       9433312
    list[37]  cost      50673546
    list[37]  weight    91791251
    list[37]  rep(37,37)  -1
    list[38]  OBJ       7109471
    list[38]  cost      64996591
    list[38]  weight    36704229
    list[38]  rep(38,38)  -1
    list[39]  OBJ       12707142
    list[39]  cost      111571209
    list[39]  weight    75628841
    list[39]  rep(39,39)  -1
    list[40]  OBJ       47173534
    list[40]  cost      71645765
    list[40]  weight    106805280
    list[40]  rep(40,40)  -1
    list[41]  OBJ       5464722
    list[41]  cost      123704005
    list[41]  weight    176605197
    list[41]  rep(41,41)  -1
    list[42]  OBJ       49253514
    list[42]  cost      51210241
    list[42]  weight    62006637
    list[42]  rep(42,42)  -1
    list[43]  OBJ       13750479
    list[43]  cost      139675942
    list[43]  weight    67349593
    list[43]  rep(43,43)  -1
    list[44]  OBJ       82291893
    list[44]  cost      63828147
    list[44]  weight    6041438
    list[44]  rep(44,44)  -1
    list[45]  OBJ       21719863
    list[45]  cost      9071950
    list[45]  weight    69350365
    list[45]  rep(45,45)  -1
    list[46]  OBJ       14555077
    list[46]  cost      130505673
    list[46]  weight    20125237
    list[46]  rep(46,46)  -1
    list[47]  OBJ       4655037
    list[47]  cost      71728456
    list[47]  weight    140841384
    list[47]  rep(47,47)  -1
    list[48]  OBJ       5938801
    list[48]  cost      132388539
    list[48]  weight    137512563
    list[48]  rep(48,48)  -1
    list[49]  OBJ       75203244
    list[49]  cost      30211509
    list[49]  weight    115800300
    list[49]  rep(49,49)  -1
    indicator[1]  rep(1,0)  1
    indicator[1]  constr_0  1
    indicator[1]  constr_9  1
    indicator[1]  constr_11  1
    indicator[2]  rep(2,1)  1
    indicator[2]  constr_3  1
    indicator[2]  constr_14  1
    indicator[3]  rep(3,2)  1
    indicator[3]  constr_2  1
    indicator[3]  constr_15  1
    indicator[3]  constr_17  1
    indicator[4]  rep(4,3)  1
    indicator[4]  constr_1  1
    indicator[4]  constr_10  1
    indicator[4]  constr_12  1
    indicator[4]  constr_14  1
    indicator[5]  rep(5,4)  1
    indicator[5]  constr_2  1
    indicator[5]  constr_3  1
    indicator[6]  rep(6,5)  1
    indicator[6]  constr_9  1
    indicator[7]  rep(7,6)  1
    indicator[7]  constr_3  1
    indicator[8]  rep(8,7)  1
    indicator[9]  rep(9,8)  1
    indicator[10]  rep(10,9)  1
    indicator[10]  constr_19  1
    indicator[11]  rep(11,10)  1
    indicator[11]  rep(11,11)  1
    indicator[11]  constr_8  1
    indicator[12]  rep(12,12)  1
    indicator[12]  constr_1  1
    indicator[12]  constr_4  1
    indicator[12]  constr_8  1
    indicator[12]  constr_18  1
    indicator[13]  rep(13,13)  1
    indicator[14]  rep(14,14)  1
    indicator[14]  constr_5  1
    indicator[15]  rep(15,15)  1
    indicator[15]  constr_13  1
    indicator[16]  rep(16,16)  1
    indicator[17]  rep(17,17)  1
    indicator[17]  constr_5  1
    indicator[17]  constr_8  1
    indicator[17]  constr_12  1
    indicator[17]  constr_16  1
    indicator[18]  rep(18,18)  1
    indicator[18]  constr_12  1
    indicator[19]  rep(19,19)  1
    indicator[19]  constr_5  1
    indicator[19]  constr_13  1
    indicator[19]  constr_18  1
    indicator[20]  rep(20,20)  1
    indicator[20]  constr_18  1
    indicator[20]  constr_19  1
    indicator[21]  rep(21,21)  1
    indicator[21]  constr_7  1
    indicator[22]  rep(22,22)  1
    indicator[22]  constr_7  1
    indicator[22]  constr_14  1
    indicator[23]  rep(23,23)  1
    indicator[23]  constr_11  1
    indicator[24]  rep(24,24)  1
    indicator[24]  constr_4  1
    indicator[25]  rep(25,25)  1
    indicator[26]  rep(26,26)  1
    indicator[26]  constr_10  1
    indicator[26]  constr_11  1
    indicator[27]  rep(27,27)  1
    indicator[28]  rep(28,28)  1
    indicator[28]  constr_9  1
    indicator[29]  rep(29,29)  1
    indicator[30]  rep(30,30)  1
    indicator[30]  constr_19  1
    indicator[31]  rep(31,31)  1
    indicator[31]  constr_6  1
    indicator[31]  constr_16  1
    indicator[32]  rep(32,32)  1
    indicator[32]  constr_6  1
    indicator[32]  constr_13  1
    indicator[33]  rep(33,33)  1
    indicator[33]  constr_15  1
    indicator[34]  rep(34,34)  1
    indicator[34]  constr_17  1
    indicator[35]  rep(35,35)  1
    indicator[36]  rep(36,36)  1
    indicator[36]  constr_4  1
    indicator[36]  constr_7  1
    indicator[37]  rep(37,37)  1
    indicator[37]  constr_17  1
    indicator[38]  rep(38,38)  1
    indicator[38]  constr_6  1
    indicator[39]  rep(39,39)  1
    indicator[39]  constr_10  1
    indicator[40]  rep(40,40)  1
    indicator[41]  rep(41,41)  1
    indicator[42]  rep(42,42)  1
    indicator[43]  rep(43,43)  1
    indicator[44]  rep(44,44)  1
    indicator[45]  rep(45,45)  1
    indicator[46]  rep(46,46)  1
    indicator[47]  rep(47,47)  1
    indicator[48]  rep(48,48)  1
    indicator[49]  rep(49,49)  1
    MARKER    'MARKER'                 'INTEND'
RHS
    RHS1      OBJ       -1561160437
    RHS1      cost      1561160437
    RHS1      weight    1815822936
    RHS1      constr_0  1
    RHS1      constr_1  1
    RHS1      constr_2  1
    RHS1      constr_3  1
    RHS1      constr_4  1
    RHS1      constr_5  1
    RHS1      constr_6  1
    RHS1      constr_7  1
    RHS1      constr_8  1
    RHS1      constr_9  1
    RHS1      constr_10  1
    RHS1      constr_11  1
    RHS1      constr_12  1
    RHS1      constr_13  1
    RHS1      constr_14  1
    RHS1      constr_15  1
    RHS1      constr_16  1
    RHS1      constr_17  1
    RHS1      constr_18  1
    RHS1      constr_19  1
BOUNDS
 BV BND1      list[0] 
 BV BND1      list[1] 
 BV BND1      list[2] 
 BV BND1      list[3] 
 BV BND1      list[4] 
 BV BND1      list[5] 
 BV BND1      list[6] 
 BV BND1      list[7] 
 BV BND1      list[8] 
 BV BND1      list[9] 
 BV BND1      list[10]
 BV BND1      list[11]
 BV BND1      list[12]
 BV BND1      list[13]
 BV BND1      list[14]
 BV BND1      list[15]
 BV BND1      list[16]
 BV BND1      list[17]
 BV BND1      list[18]
 BV BND1      list[19]
 BV BND1      list[20]
 BV BND1      list[21]
 BV BND1      list[22]
 BV BND1      list[23]
 BV BND1      list[24]
 BV BND1      list[25]
 BV BND1      list[26]
 BV BND1      list[27]
 BV BND1      list[28]
 BV BND1      list[29]
 BV BND1      list[30]
 BV BND1      list[31]
 BV BND1      list[32]
 BV BND1      list[33]
 BV BND1      list[34]
 BV BND1      list[35]
 BV BND1      list[36]
 BV BND1      list[37]
 BV BND1      list[38]
 BV BND1      list[39]
 BV BND1      list[40]
 BV BND1      list[41]
 BV BND1      list[42]
 BV BND1      list[43]
 BV BND1      list[44]
 BV BND1      list[45]
 BV BND1      list[46]
 BV BND1      list[47]
 BV BND1      list[48]
 BV BND1      list[49]
 LI BND1      indicator[1]  0
 LI BND1      indicator[2]  0
 LI BND1      indicator[3]  0
 LI BND1      indicator[4]  0
 LI BND1      indicator[5]  0
 LI BND1      indicator[6]  0
 LI BND1      indicator[7]  0
 LI BND1      indicator[8]  0
 LI BND1      indicator[9]  0
 LI BND1      indicator[10]  0
 LI BND1      indicator[11]  0
 LI BND1      indicator[12]  0
 LI BND1      indicator[13]  0
 LI BND1      indicator[14]  0
 LI BND1      indicator[15]  0
 LI BND1      indicator[16]  0
 LI BND1      indicator[17]  0
 LI BND1      indicator[18]  0
 LI BND1      indicator[19]  0
 LI BND1      indicator[20]  0
 LI BND1      indicator[21]  0
 LI BND1      indicator[22]  0
 LI BND1      indicator[23]  0
 LI BND1      indicator[24]  0
 LI BND1      indicator[25]  0
 LI BND1      indicator[26]  0
 LI BND1      indicator[27]  0
 LI BND1      indicator[28]  0
 LI BND1      indicator[29]  0
 LI BND1      indicator[30]  0
 LI BND1      indicator[31]  0
 LI BND1      indicator[32]  0
 LI BND1      indicator[33]  0
 LI BND1      indicator[34]  0
 LI BND1      indicator[35]  0
 LI BND1      indicator[36]  0
 LI BND1      indicator[37]  0
 LI BND1      indicator[38]  0
 LI BND1      indicator[39]  0
 LI BND1      indicator[40]  0
 LI BND1      indicator[41]  0
 LI BND1      indicator[42]  0
 LI BND1      indicator[43]  0
 LI BND1      indicator[44]  0
 LI BND1      indicator[45]  0
 LI BND1      indicator[46]  0
 LI BND1      indicator[47]  0
 LI BND1      indicator[48]  0
 LI BND1      indicator[49]  0
ENDATA
