phase2/problem_log/problem939.sol
# Solution for model Resale_Solver
# Objective value = 1408733451
list[0] 1
list[1] 0
list[2] 0
list[3] 0
list[4] 0
list[5] 0
list[6] 0
list[7] 0
list[8] 0
list[9] 0
list[10] 0
list[11] 0
list[12] 0
list[13] 0
list[14] 0
list[15] 0
list[16] 0
list[17] 0
list[18] 0
list[19] 0
list[20] 0
list[21] 0
list[22] 0
list[23] 0
list[24] 0
list[25] 0
list[26] 0
list[27] 0
list[28] 0
list[29] 0
list[30] 0
list[31] 0
list[32] 0
list[33] 0
list[34] 0
list[35] 0
list[36] 0
list[37] 0
list[38] 0
list[39] 0
list[40] 0
list[41] 0
list[42] 0
list[43] 0
list[44] 0
list[45] 0
list[46] 0
list[47] 0
list[48] 0
list[49] 0
indicator[1] 1
indicator[2] 0
indicator[3] 0
indicator[4] 0
indicator[5] 0
indicator[6] 0
indicator[7] 0
indicator[8] 0
indicator[9] 0
indicator[10] 0
indicator[11] 0
indicator[12] 0
indicator[13] 0
indicator[14] 0
indicator[15] 0
indicator[16] 0
indicator[17] 0
indicator[18] 0
indicator[19] 0
indicator[20] 0
indicator[21] 0
indicator[22] 0
indicator[23] 0
indicator[24] 0
indicator[25] 0
indicator[26] 0
indicator[27] 0
indicator[28] 0
indicator[29] 0
indicator[30] 0
indicator[31] 0
indicator[32] 0
indicator[33] 0
indicator[34] 0
indicator[35] 0
indicator[36] 0
indicator[37] 0
indicator[38] 0
indicator[39] 0
indicator[40] 0
indicator[41] 0
indicator[42] 0
indicator[43] 0
indicator[44] 0
indicator[45] 0
indicator[46] 0
indicator[47] 0
indicator[48] 0
indicator[49] 0
